param set_len = 24;
param target = 11170341;
param values := [0] 883170 [1] 1572895 [2] 402785 [3] 1614880 [4] 1889103 [5] 493265 [6] 1058840 [7] 1783997 [8] 1258425 [9] 309733 [10] 63962 [11] 2023251 [12] 992235 [13] 27535 [14] 1330559 [15] 1812867 [16] 1951174 [17] 62727 [18] 855695 [19] 412173 [20] 256619 [21] 1937466 [22] 1469783 [23] 45155 ;
